(set-info :smt-lib-version 2.6)
(set-logic QF_UFLRA)
(set-info :source |
MathSat group

|)
(set-info :category "random")
(set-info :status unsat)
(declare-fun x0 () Real)
(declare-fun x1 () Real)
(declare-fun x2 () Real)
(declare-fun x3 () Real)
(declare-fun x4 () Real)
(declare-fun x5 () Real)
(declare-fun x6 () Real)
(declare-fun x7 () Real)
(declare-fun x8 () Real)
(declare-fun x9 () Real)
(declare-fun x10 () Real)
(declare-fun x11 () Real)
(declare-fun x12 () Real)
(declare-fun x13 () Real)
(declare-fun x14 () Real)
(declare-fun x15 () Real)
(declare-fun x16 () Real)
(declare-fun x17 () Real)
(declare-fun x18 () Real)
(declare-fun x19 () Real)
(declare-fun x20 () Real)
(declare-fun x21 () Real)
(declare-fun x22 () Real)
(declare-fun x23 () Real)
(declare-fun x24 () Real)
(declare-fun x25 () Real)
(declare-fun x26 () Real)
(declare-fun x27 () Real)
(declare-fun x28 () Real)
(declare-fun x29 () Real)
(declare-fun f0_1 (Real) Real)
(declare-fun f0_2 (Real Real) Real)
(declare-fun f0_3 (Real Real Real) Real)
(declare-fun f0_4 (Real Real Real Real) Real)
(declare-fun P0 () Bool)
(declare-fun P1 () Bool)
(declare-fun P2 () Bool)
(declare-fun P3 () Bool)
(declare-fun P4 () Bool)
(declare-fun P5 () Bool)
(declare-fun P6 () Bool)
(declare-fun P7 () Bool)
(declare-fun P8 () Bool)
(declare-fun P9 () Bool)
(declare-fun P10 () Bool)
(declare-fun P11 () Bool)
(declare-fun P12 () Bool)
(declare-fun P13 () Bool)
(declare-fun P14 () Bool)
(declare-fun P15 () Bool)
(declare-fun P16 () Bool)
(declare-fun P17 () Bool)
(declare-fun P18 () Bool)
(declare-fun P19 () Bool)
(declare-fun P20 () Bool)
(declare-fun P21 () Bool)
(declare-fun P22 () Bool)
(declare-fun P23 () Bool)
(declare-fun P24 () Bool)
(declare-fun P25 () Bool)
(declare-fun P26 () Bool)
(declare-fun P27 () Bool)
(declare-fun P28 () Bool)
(declare-fun P29 () Bool)
(assert (let ((?v_28 (* 16 x28)) (?v_9 (* 5 x17))) (let ((?v_17 (< (- (+ (* 35 x16) ?v_9) (* 23 x3)) 22)) (?v_18 (* 6 x1))) (let ((?v_74 (< (- (+ ?v_18 (* 42 x8)) (* 16 x29)) 7)) (?v_56 (* 3 x4)) (?v_5 (= x0 x23)) (?v_35 (= (f0_2 x25 x19) (f0_2 x17 x4))) (?v_24 (= x0 (f0_2 x23 x9))) (?v_118 (= (f0_2 x15 x15) x6)) (?v_96 (f0_2 x3 x7))) (let ((?v_155 (= ?v_96 x5)) (?v_94 (= x2 (f0_1 x20))) (?v_6 (= (f0_2 x3 x8) (f0_2 x23 x18))) (?v_11 (distinct x24 x23)) (?v_70 (= x17 x28)) (?v_15 (distinct (f0_1 x27) (f0_2 x8 x27))) (?v_54 (= (f0_2 x14 x27) x9)) (?v_55 (f0_1 x4))) (let ((?v_64 (distinct (f0_1 x18) ?v_55)) (?v_36 (f0_1 x16))) (let ((?v_86 (= (f0_2 x11 x13) ?v_36)) (?v_151 (= (f0_1 x22) (f0_2 x22 x18))) (?v_7 (f0_2 x14 x8))) (let ((?v_138 (distinct ?v_7 ?v_36)) (?v_23 (distinct (f0_2 x11 x14) ?v_7)) (?v_27 (= x9 x22)) (?v_61 (distinct (f0_1 x13) x12)) (?v_69 (= (f0_1 x10) (f0_1 x8))) (?v_39 (distinct x25 (f0_2 x9 x25))) (?v_107 (= (f0_2 x28 x6) (f0_2 x19 x23))) (?v_10 (distinct (f0_2 x3 x0) (f0_2 x12 x15))) (?v_0 (distinct (f0_2 x26 x15) (f0_1 x2))) (?v_122 (= x0 x7)) (?v_33 (= x20 ?v_96)) (?v_87 (= x8 ?v_55)) (?v_13 (distinct (f0_2 x12 x16) (f0_1 x3))) (?v_53 (distinct (f0_2 x18 x28) x1)) (?v_141 (distinct (f0_2 x26 x2) (f0_1 x9))) (?v_62 (distinct x26 x19)) (?v_3 (not P0))) (let ((?v_4 (not ?v_0)) (?v_81 (not ?v_118)) (?v_119 (not ?v_141)) (?v_12 (not P29)) (?v_50 (not ?v_24)) (?v_98 (not ?v_11)) (?v_48 (not ?v_5)) (?v_8 (not ?v_87)) (?v_30 (not ?v_6)) (?v_76 (not P6)) (?v_31 (not P19)) (?v_25 (not ?v_138)) (?v_14 (not ?v_69)) (?v_58 (not P28)) (?v_47 (not ?v_10)) (?v_83 (not P2)) (?v_65 (not ?v_13)) (?v_26 (not ?v_17)) (?v_51 (not ?v_74)) (?v_43 (not P17)) (?v_109 (not P24)) (?v_130 (not ?v_27)) (?v_44 (not P15)) (?v_40 (not P8)) (?v_73 (not P5)) (?v_97 (not ?v_61)) (?v_150 (not P3)) (?v_102 (not ?v_70)) (?v_100 (not P7)) (?v_42 (not P25)) (?v_41 (not ?v_35)) (?v_123 (not ?v_86)) (?v_144 (not P27)) (?v_52 (not ?v_23)) (?v_67 (not P1)) (?v_82 (not ?v_151)) (?v_84 (not ?v_53)) (?v_136 (not ?v_54)) (?v_68 (not P11)) (?v_153 (not P21)) (?v_71 (not ?v_62)) (?v_63 (not P16)) (?v_140 (not P10)) (?v_95 (not P4)) (?v_91 (not P23)) (?v_129 (not P18)) (?v_103 (not P9)) (?v_127 (not P13)) (?v_104 (not ?v_15)) (?v_114 (not P22)) (?v_121 (not ?v_155)) (?v_137 (not ?v_94)) (?v_145 (not P20)) (?v_116 (not ?v_64)) (?v_128 (not ?v_122)) (?v_131 (not ?v_107)) (?v_124 (not ?v_33)) (?v_125 (not P26)) (?v_146 (not ?v_39)) (?v_75 (= (+ (* 9 x1) (* 14 x25) (* 15 x28)) 8))) (let ((?v_1 (not ?v_75)) (?v_88 (<= (+ (- x2 (* 11 x7)) (* 30 x27)) 39))) (let ((?v_113 (not ?v_88)) (?v_37 (<= (+ (* 7 x19) (* 14 x20) (* 29 x3)) 41))) (let ((?v_110 (not ?v_37)) (?v_126 (<= (+ (* 7 x2) (* 36 x7)) 24))) (let ((?v_147 (not ?v_126)) (?v_105 (< (+ (- (* (- 41) x8) (* 19 x18)) (* 2 x12)) 12))) (let ((?v_29 (not ?v_105)) (?v_19 (= (+ (- (* 9 x10) (* 4 x9)) (* 30 x20)) (- 44))) (?v_49 (< (+ (- (* (- 21) x11) ?v_28) (* 39 x22)) (- 2))) (?v_21 (= (- (+ (* 30 x29) (* 15 x29)) (* 2 x4)) (- 8)))) (let ((?v_2 (not ?v_21)) (?v_20 (< (+ (- (* 9 x26) (* 17 x29)) (* 4 x10)) (- 15))) (?v_32 (< (+ (- (* (- 4) x14) 0) (* 42 x6)) (- 21))) (?v_149 (distinct (+ (* (- 21) x8) (* 34 x21) (* 34 x8)) (- 32)))) (let ((?v_85 (not ?v_149)) (?v_38 (= (- (+ (* (- 22) x4) (* 29 x16)) (* 19 x5)) (- 5))) (?v_117 (< (+ (* 35 x5) (* 37 x25) (* 42 x19)) (- 1)))) (let ((?v_79 (not ?v_117)) (?v_60 (< (+ ?v_18 (* 26 x24) (* 27 x28)) (- 37))) (?v_22 (< (+ (- (* 21 x11) (* 38 x6)) ?v_9) (- 27)))) (let ((?v_143 (not ?v_22)) (?v_16 (<= (- (- (* (- 5) x15) 0) (* 22 x2)) (- 1)))) (let ((?v_78 (not ?v_16)) (?v_45 (not ?v_19)) (?v_139 (not ?v_20)) (?v_46 (< (+ (* (- 37) x27) (* 7 x1) ?v_56) (- 44)))) (let ((?v_132 (not ?v_46)) (?v_34 (< (+ (* (- 8) x23) (* 16 x15) (* 15 x20)) (- 18)))) (let ((?v_77 (not ?v_34)) (?v_157 (<= (- (- (* (- 12) x4) ?v_28) (* 15 x7)) (- 30)))) (let ((?v_99 (not ?v_157)) (?v_115 (not ?v_32)) (?v_72 (not ?v_38)) (?v_59 (< (+ (- (* (- 38) x4) (* 15 x23)) x23) (- 4))) (?v_57 (<= (+ (- (* 10 x25) x4) (* 11 x14)) (- 16))) (?v_66 (distinct (+ (- (* (- 5) x29) (* 31 x6)) (* 25 x10)) (- 11))) (?v_152 (<= (+ (* (- 29) x18) (* 38 x24) (* 39 x7)) (- 41)))) (let ((?v_108 (not ?v_152)) (?v_134 (< (+ (* (- 8) x6) (* 9 x4) (* 34 x25)) (- 35))) (?v_92 (not ?v_49)) (?v_90 (<= (+ (* 24 x23) (* 26 x27) ?v_56) (- 7)))) (let ((?v_112 (not ?v_90)) (?v_106 (not ?v_57)) (?v_133 (not ?v_59)) (?v_111 (not ?v_66)) (?v_89 (<= (- (+ (* (- 35) x4) (* 10 x3)) (* 5 x27)) (- 19)))) (let ((?v_120 (not ?v_89)) (?v_156 (or ?v_77 ?v_8)) (?v_93 (= (+ (- (* (- 36) x10) x2) (* 32 x21)) (- 9))) (?v_148 (< (- (- (* (- 39) x10) (* 40 x28)) (* 26 x1)) (- 1)))) (let ((?v_80 (not ?v_148)) (?v_101 (not ?v_60)) (?v_135 (not ?v_93)) (?v_142 (not ?v_134)) (?v_154 (or ?v_16 ?v_60))) (and (and (and (and (and (and (and (and (and (and (and (and (and (and (and (and (and (and (and (and (and (and (and (and (and (and (and (and (and (and (and (and (and (and (and (and (and (and (and (and (and (and (and (and (and (and (and (and (and (and (and (and (and (and (and (and (and (and (and (and (and (and (and (and (and (and (and (and (and (and (and (and (and (and (and (and (and (and (and (and (and (and (and (and (and (and (and (and (and (and (and (and (and (and (and (and (and (and (and (and (and (and (and (and (and (and (and (and (and (and (and (and (and (and (and (and (and (and (and (and (and (and (and (and (and (and (and (and (and (and (and (and (and (and (and (and (and (and (and (and (and (and (and (and (and (and (and (and (and (and (and (and (and (and (and (and (and (and (and (and (and (and (and (and (and (and (and (and (and (and (and (and (and (and (and (and (and (and (and (and (and (and (and (and (and (and (and (and (and (and (and (and (and (and (and (and (and (and (and (and (and (and (and (and (and (and (and (and (and (and (and (and (and (and (and (and (and (and (and (and (and (and (and (and (and (and (and (and (and (and (and (and (and (and (and (and (and (and (and (and (and (and (and (and (and (and (and (and (and (and (and (and (and (and (and (and (and (and (and (and (and (and (and (and (and (and (and (and (and (and (and (and (and (and (and (and (and (and (and (and (and (and (and (and (and (and (and (and (and (and (and (and (and (and (and (and (and (and (and (and (and (and (and (and (and (and (and (and (and (and (and (and (and (and (and (and (and (and (and (and (and (and (and (and (and (and (and (and (and (and (and (and (and (and (and (and (and (and (and (and (and (and (and (and (and (and (and (and (and (and (and (and (and (and (and (and (and (and (and (and (and (and (and (and (and (and (and (and (and (and (and (and (and (and (and (and (and (and (and (and (and (and (and (and (and (and (and (and (and (and (and (and (and (and (and (and (and (and (and (and (and (and (and (and (and (and (and (and (and (and (and (and (and (and (and (and (and (and (and (and (and (and (and (and (and (and (and (and (and (and (and (and (and (and (and (and (and (and (and (and (and (and (and (and (and (and (and (and (and (or (or ?v_0 ?v_23) ?v_29) (or (or P6 ?v_19) ?v_5)) (or (or ?v_49 ?v_2) P20)) (or (or ?v_3 ?v_4) ?v_62)) (or (or ?v_20 ?v_1) P22)) (or (or ?v_1 P23) P8)) (or (or P9 ?v_2) ?v_3)) (or (or P28 ?v_32) ?v_85)) (or (or ?v_81 P6) ?v_38)) (or (or P14 ?v_119) ?v_12)) (or (or ?v_6 ?v_4) P18)) (or (or ?v_50 ?v_98) ?v_17)) (or (or ?v_107 P25) P22)) (or (or ?v_48 ?v_79) ?v_60)) (or (or ?v_15 ?v_8) P6)) (or (or ?v_30 ?v_76) ?v_31)) (or (or ?v_25 ?v_8) ?v_10)) (or (or ?v_14 P15) ?v_143)) (or (or ?v_33 ?v_58) P4)) (or (or ?v_47 ?v_11) ?v_12)) (or (or ?v_1 ?v_13) ?v_83)) (or (or ?v_65 ?v_16) ?v_14)) (or (or P21 ?v_15) ?v_78)) (or (or P20 ?v_26) ?v_3)) (or (or ?v_51 P24) P12)) (or (or P11 ?v_45) ?v_139)) (or (or P13 ?v_21) ?v_43)) (or (or ?v_22 ?v_10) ?v_109)) (or (or ?v_130 ?v_44) ?v_132)) (or (or ?v_23 ?v_24) ?v_25)) (or (or P15 ?v_77) ?v_4)) (or (or P0 ?v_21) P19)) (or (or ?v_26 ?v_40) ?v_27)) (or (or ?v_73 ?v_99) ?v_15)) (or (or ?v_29 P23) ?v_35)) (or (or ?v_97 ?v_30) ?v_150)) (or (or ?v_113 ?v_110) ?v_31)) (or (or ?v_115 ?v_102) ?v_100)) (or (or ?v_42 ?v_33) ?v_24)) (or (or ?v_34 ?v_41) P17)) (or (or P26 ?v_123) ?v_144)) (or (or ?v_37 ?v_72) ?v_39)) (or (or ?v_38 P21) ?v_29)) (or (or ?v_39 ?v_40) ?v_52)) (or (or ?v_41 ?v_42) ?v_43)) (or (or ?v_44 ?v_67) ?v_45)) (or (or ?v_59 ?v_57) ?v_46)) (or (or ?v_47 P26) ?v_48)) (or (or ?v_66 ?v_108) ?v_134)) (or (or ?v_1 ?v_53) ?v_92)) (or (or ?v_50 ?v_82) ?v_43)) (or (or ?v_51 P13) ?v_52)) (or (or ?v_52 ?v_84) ?v_54)) (or (or ?v_32 ?v_136) P12)) (or (or ?v_68 P22) ?v_64)) (or (or ?v_112 ?v_106) ?v_53)) (or (or ?v_53 ?v_29) ?v_58)) (or (or ?v_15 ?v_133) P14)) (or (or P28 ?v_57) ?v_17)) (or (or ?v_60 ?v_16) ?v_15)) (or (or ?v_153 ?v_61) ?v_50)) (or (or ?v_71 ?v_30) ?v_63)) (or (or ?v_63 ?v_47) ?v_48)) (or (or ?v_64 ?v_16) ?v_65)) (or (or (not P14) ?v_111) P10)) (or (or ?v_52 ?v_53) ?v_67)) (or (or ?v_68 ?v_26) P21)) (or (or P19 ?v_16) ?v_8)) (or (or ?v_69 ?v_140) ?v_70)) (or (or ?v_71 ?v_72) ?v_120)) (or (or ?v_95 ?v_70) ?v_73)) (or (or ?v_17 ?v_64) ?v_73)) (or (or P19 ?v_63) ?v_91)) (or (or P5 P22) ?v_66)) (or (or P18 ?v_74) ?v_52)) (or (or ?v_75 ?v_76) ?v_43)) (or (or ?v_34 P27) ?v_64)) (or ?v_156 ?v_93)) (or (or ?v_43 ?v_66) ?v_78)) (or (or ?v_129 ?v_54) P29)) (or (or P22 ?v_8) ?v_57)) (or (or ?v_80 P17) P27)) (or (or ?v_103 ?v_79) ?v_80)) (or (or ?v_38 ?v_5) ?v_4)) (or (or ?v_127 ?v_20) ?v_37)) (or (or ?v_81 ?v_49) ?v_82)) (or (or ?v_16 ?v_83) ?v_84)) (or (or ?v_104 P11) ?v_85)) (or (or ?v_86 ?v_87) ?v_53)) (or (or ?v_88 ?v_114) P21)) (or (or P11 ?v_71) ?v_46)) (or (or ?v_25 ?v_73) ?v_89)) (or (or ?v_90 ?v_91) ?v_67)) (or (or ?v_94 ?v_33) ?v_63)) (or (or ?v_4 ?v_21) ?v_65)) (or (or ?v_92 P6) ?v_68)) (or (or ?v_101 ?v_23) ?v_69)) (or (or ?v_59 ?v_135) ?v_92)) (or (or ?v_48 ?v_0) ?v_94)) (or (or ?v_95 ?v_58) ?v_121)) (or (or P6 ?v_137) ?v_3)) (or (or ?v_97 ?v_88) ?v_145)) (or (or ?v_81 ?v_98) P3)) (or (or ?v_15 ?v_49) ?v_78)) (or (or ?v_99 ?v_78) ?v_93)) (or (or ?v_100 ?v_79) ?v_101)) (or (or ?v_12 ?v_49) ?v_45)) (or (or P2 P28) ?v_102)) (or (or ?v_72 ?v_11) ?v_103)) (or (or ?v_70 ?v_104) P17)) (or (or ?v_11 P5) ?v_67)) (or (or ?v_52 P29) ?v_69)) (or (or ?v_17 ?v_81) ?v_51)) (or (or ?v_103 ?v_43) ?v_89)) (or (or ?v_116 ?v_47) ?v_105)) (or (or ?v_48 ?v_128) ?v_15)) (or (or ?v_39 ?v_86) ?v_81)) (or (or ?v_30 P10) ?v_88)) (or (or ?v_39 ?v_106) ?v_72)) (or (or ?v_74 P7) ?v_39)) (or (or P11 ?v_20) ?v_44)) (or (or ?v_131 ?v_108) ?v_69)) (or (or P8 ?v_105) P22)) (or (or ?v_34 P3) ?v_109)) (or (or ?v_53 ?v_65) ?v_110)) (or (or P16 ?v_31) ?v_124)) (or (or ?v_91 ?v_59) P27)) (or (or ?v_111 ?v_54) P24)) (or (or ?v_98 ?v_17) ?v_27)) (or (or ?v_50 ?v_52) ?v_40)) (or (or ?v_106 ?v_90) P21)) (or (or ?v_125 P18) ?v_83)) (or (or ?v_112 ?v_113) P16)) (or (or ?v_112 ?v_62) ?v_114)) (or (or ?v_53 ?v_115) ?v_116)) (or (or ?v_21 ?v_50) ?v_10)) (or (or ?v_117 ?v_62) ?v_14)) (or (or ?v_70 ?v_118) ?v_22)) (or (or ?v_26 P25) ?v_119)) (or (or P21 ?v_89) ?v_24)) (or (or ?v_120 ?v_64) ?v_84)) (or (or ?v_126 ?v_44) ?v_120)) (or (or ?v_107 ?v_94) ?v_121)) (or (or ?v_61 P21) ?v_122)) (or (or ?v_62 ?v_115) ?v_104)) (or (or P27 P6) ?v_92)) (or (or ?v_122 ?v_123) ?v_68)) (or (or ?v_124 ?v_38) ?v_1)) (or (or ?v_107 ?v_121) ?v_5)) (or (or ?v_125 P29) ?v_74)) (or (or ?v_35 P20) ?v_1)) (or (or ?v_52 P6) P27)) (or (or ?v_70 P8) ?v_85)) (or (or ?v_126 ?v_82) ?v_78)) (or (or ?v_17 ?v_127) ?v_81)) (or (or ?v_41 ?v_31) ?v_93)) (or (or P25 ?v_128) ?v_129)) (or (or P2 ?v_16) ?v_57)) (or (or ?v_67 ?v_31) ?v_129)) (or (or ?v_126 ?v_54) ?v_130)) (or (or ?v_60 ?v_90) ?v_87)) (or (or ?v_97 ?v_44) ?v_131)) (or (or ?v_126 P16) P1)) (or (or ?v_101 ?v_50) ?v_71)) (or (or ?v_69 ?v_112) P5)) (or (or P1 ?v_14) ?v_132)) (or (or ?v_74 ?v_132) ?v_58)) (or (or P26 P15) ?v_120)) (or (or ?v_30 ?v_41) ?v_83)) (or (or ?v_61 P24) ?v_89)) (or (or ?v_107 ?v_119) ?v_133)) (or (or ?v_19 ?v_41) ?v_90)) (or (or ?v_68 ?v_61) P1)) (or (or ?v_142 ?v_119) ?v_100)) (or (or ?v_70 P7) P5)) (or (or ?v_11 ?v_106) P15)) (or (or ?v_135 ?v_67) ?v_86)) (or (or ?v_103 ?v_80) P10)) (or (or ?v_103 ?v_74) ?v_37)) (or (or ?v_74 ?v_64) ?v_136)) (or (or ?v_97 ?v_123) ?v_8)) (or (or ?v_15 P12) ?v_131)) (or (or ?v_27 ?v_53) ?v_117)) (or (or ?v_29 ?v_78) ?v_71)) (or (or ?v_67 ?v_137) P9)) (or (or ?v_51 ?v_49) ?v_19)) (or (or ?v_124 ?v_75) ?v_105)) (or (or P23 P23) ?v_51)) (or (or ?v_131 ?v_93) ?v_138)) (or (or ?v_114 ?v_57) P18)) (or (or ?v_57 ?v_16) ?v_65)) (or (or ?v_40 ?v_132) ?v_69)) (or (or P9 ?v_74) ?v_121)) (or (or ?v_81 ?v_139) ?v_59)) (or (or ?v_138 P8) ?v_147)) (or (or P24 ?v_121) ?v_139)) (or (or ?v_133 ?v_84) ?v_75)) (or (or P27 ?v_131) ?v_10)) (or (or ?v_104 ?v_63) P18)) (or (or ?v_48 ?v_39) ?v_140)) (or (or ?v_19 P9) ?v_27)) (or (or ?v_94 P22) ?v_40)) (or (or ?v_42 ?v_27) ?v_107)) (or (or ?v_99 ?v_102) ?v_81)) (or (or P6 ?v_53) ?v_128)) (or (or ?v_24 ?v_46) ?v_87)) (or (or ?v_39 P1) P29)) (or (or ?v_91 ?v_86) ?v_67)) (or (or ?v_127 ?v_89) P19)) (or (or ?v_146 P15) ?v_67)) (or (or ?v_75 ?v_72) ?v_50)) (or (or ?v_131 ?v_141) ?v_68)) (or (or ?v_6 P17) ?v_142)) (or (or P6 P22) ?v_61)) (or (or ?v_104 ?v_122) ?v_79)) (or (or ?v_37 ?v_132) P6)) (or (or ?v_86 ?v_47) ?v_42)) (or (or P12 ?v_114) ?v_143)) (or (or ?v_144 ?v_86) P14)) (or (or ?v_127 ?v_41) ?v_4)) (or (or P18 ?v_105) ?v_6)) (or (or ?v_30 ?v_38) P16)) (or (or ?v_127 ?v_0) ?v_30)) (or (or ?v_89 ?v_145) ?v_91)) (or (or ?v_81 P21) ?v_38)) (or (or ?v_37 P7) ?v_0)) (or (or ?v_146 ?v_92) ?v_78)) (or (or ?v_92 ?v_73) ?v_127)) (or (or ?v_3 ?v_8) ?v_90)) (or (or ?v_34 ?v_134) ?v_35)) (or (or P19 ?v_40) ?v_53)) (or (or ?v_31 P6) ?v_59)) (or (or ?v_6 ?v_14) ?v_70)) (or (or ?v_147 ?v_62) ?v_42)) (or (or P26 ?v_148) ?v_129)) (or (or ?v_21 ?v_48) ?v_0)) (or (or ?v_97 ?v_75) ?v_77)) (or (or ?v_41 ?v_100) ?v_86)) (or (or ?v_128 P6) ?v_48)) (or (or ?v_97 ?v_38) ?v_80)) (or (or ?v_149 ?v_101) ?v_150)) (or (or ?v_75 ?v_4) ?v_65)) (or (or ?v_99 P16) ?v_24)) (or (or P14 ?v_2) ?v_20)) (or (or ?v_24 ?v_113) ?v_75)) (or (or ?v_63 P17) ?v_37)) (or ?v_154 ?v_118)) (or (or ?v_27 ?v_133) ?v_124)) (or (or ?v_124 ?v_79) ?v_25)) (or (or ?v_90 ?v_137) ?v_111)) (or (or P26 ?v_54) ?v_107)) (or (or ?v_94 P18) ?v_15)) (or (or ?v_87 ?v_65) ?v_123)) (or (or ?v_151 ?v_100) ?v_152)) (or (or ?v_151 P9) ?v_102)) (or (or ?v_42 ?v_80) ?v_121)) (or (or P14 P7) ?v_46)) (or (or ?v_46 ?v_88) ?v_60)) (or (or P5 ?v_143) ?v_120)) (or (or ?v_54 ?v_13) ?v_50)) (or (or ?v_126 ?v_39) ?v_111)) (or (or ?v_14 ?v_121) ?v_98)) (or (or ?v_73 ?v_74) ?v_120)) (or (or ?v_42 ?v_130) ?v_91)) (or (or ?v_26 ?v_30) ?v_128)) (or (or ?v_130 ?v_153) ?v_26)) (or (or P1 ?v_41) ?v_117)) (or (or P24 ?v_88) ?v_87)) (or (or ?v_134 ?v_19) ?v_84)) (or (or P24 ?v_41) ?v_5)) (or (or ?v_115 ?v_77) P16)) (or (or ?v_40 ?v_11) ?v_19)) (or (or ?v_109 ?v_111) P19)) (or (or ?v_35 ?v_62) ?v_135)) (or (or P9 P29) ?v_102)) (or (or ?v_58 ?v_80) ?v_138)) (or (or ?v_51 ?v_89) ?v_77)) (or (or ?v_30 ?v_53) ?v_98)) (or (or ?v_35 P28) ?v_90)) (or (or ?v_134 P18) ?v_111)) (or (or ?v_39 ?v_134) ?v_37)) (or (or ?v_3 ?v_29) ?v_135)) (or (or ?v_108 ?v_37) ?v_41)) (or (or ?v_65 ?v_79) ?v_120)) (or (or ?v_89 ?v_14) P19)) (or (or ?v_102 ?v_68) ?v_49)) (or (or ?v_31 ?v_144) ?v_140)) (or (or ?v_108 ?v_72) ?v_127)) (or (or ?v_91 ?v_105) ?v_78)) (or (or ?v_98 ?v_151) ?v_122)) (or (or ?v_64 P6) ?v_61)) (or (or ?v_95 ?v_10) ?v_69)) (or (or ?v_111 P29) ?v_108)) (or (or ?v_11 ?v_143) ?v_80)) (or (or ?v_127 ?v_69) ?v_59)) (or (or ?v_120 ?v_6) ?v_60)) (or (or P4 ?v_19) ?v_62)) (or (or ?v_41 P20) ?v_3)) (or (or ?v_94 ?v_42) ?v_15)) (or (or ?v_52 ?v_114) ?v_137)) (or (or ?v_132 ?v_122) ?v_41)) (or (or ?v_48 P3) ?v_0)) (or (or ?v_43 ?v_113) P4)) (or (or ?v_146 ?v_81) ?v_67)) (or (or ?v_62 ?v_5) ?v_3)) (or (or ?v_31 ?v_2) ?v_68)) (or (or ?v_99 ?v_101) ?v_65)) (or (or ?v_20 ?v_42) ?v_123)) (or (or ?v_127 ?v_16) ?v_11)) (or (or ?v_63 ?v_112) ?v_129)) (or (or ?v_2 ?v_73) ?v_119)) (or (or ?v_90 ?v_59) ?v_14)) (or (or P6 ?v_79) ?v_118)) (or (or ?v_89 ?v_67) ?v_86)) (or (or ?v_87 ?v_73) ?v_115)) (or (or ?v_106 ?v_37) ?v_32)) (or (or ?v_132 ?v_49) ?v_16)) (or (or ?v_84 ?v_43) P15)) (or (or ?v_90 ?v_49) P14)) (or (or ?v_12 ?v_84) ?v_67)) (or (or ?v_22 P25) P0)) (or (or ?v_103 P2) ?v_26)) (or (or P27 ?v_149) P15)) (or (or ?v_112 P3) ?v_139)) (or (or ?v_40 ?v_30) ?v_59)) (or (or ?v_135 ?v_151) ?v_105)) (or (or ?v_31 ?v_12) ?v_122)) (or (or ?v_147 ?v_61) P7)) (or (or ?v_137 ?v_11) ?v_152)) (or (or ?v_77 ?v_110) ?v_88)) (or (or P15 ?v_91) ?v_150)) (or (or ?v_33 ?v_54) ?v_22)) (or (or ?v_68 P4) P28)) (or (or ?v_103 ?v_98) P2)) (or (or ?v_34 ?v_5) P10)) (or (or ?v_50 ?v_112) P3)) (or (or ?v_24 ?v_128) P21)) (or (or ?v_31 ?v_128) ?v_113)) (or (or ?v_69 ?v_152) ?v_145)) (or (or ?v_151 ?v_107) P18)) (or (or ?v_15 ?v_93) ?v_127)) (or (or ?v_121 ?v_59) ?v_24)) (or (or ?v_4 ?v_15) ?v_8)) (or (or ?v_39 ?v_27) ?v_23)) (or (or ?v_27 ?v_85) ?v_127)) (or (or ?v_54 ?v_19) ?v_135)) (or (or ?v_40 P29) ?v_78)) (or (or ?v_5 P20) ?v_11)) (or (or ?v_14 ?v_111) P3)) (or ?v_154 ?v_113)) (or (or ?v_151 ?v_19) P12)) (or (or ?v_50 ?v_152) ?v_29)) (or (or ?v_58 ?v_83) ?v_98)) (or (or ?v_47 ?v_137) ?v_37)) (or (or P13 ?v_75) ?v_147)) (or (or ?v_44 ?v_146) ?v_116)) (or (or ?v_5 ?v_23) ?v_145)) (or (or ?v_112 ?v_31) ?v_114)) (or (or ?v_149 ?v_46) ?v_113)) (or (or ?v_33 ?v_12) ?v_0)) (or (or ?v_37 P29) ?v_151)) (or (or ?v_124 ?v_121) P16)) (or (or ?v_105 ?v_127) ?v_75)) (or (or ?v_114 P21) ?v_93)) (or (or P3 ?v_38) ?v_31)) (or (or ?v_97 ?v_146) ?v_57)) (or (or ?v_32 ?v_110) P27)) (or (or P28 P3) ?v_15)) (or (or ?v_52 ?v_155) ?v_53)) (or (or ?v_65 ?v_141) ?v_79)) (or (or ?v_77 ?v_109) ?v_3)) (or (or ?v_60 ?v_78) ?v_107)) (or (or ?v_69 P15) ?v_67)) (or (or ?v_104 ?v_57) ?v_79)) (or (or ?v_139 ?v_73) ?v_149)) (or (or ?v_153 ?v_143) ?v_121)) (or (or ?v_107 ?v_45) ?v_113)) (or (or ?v_12 P2) ?v_93)) (or ?v_156 ?v_140)) (or (or ?v_115 ?v_71) ?v_139)) (or (or ?v_31 ?v_107) ?v_38)) (or (or ?v_149 P26) ?v_77)) (or (or ?v_123 ?v_46) ?v_45)) (or (or ?v_20 ?v_35) P20)) (or (or ?v_70 ?v_5) P27)) (or (or ?v_123 ?v_32) P28)) (or (or ?v_59 ?v_62) ?v_124)) (or (or ?v_127 ?v_65) P14)) (or (or ?v_77 P28) ?v_95)) (or (or P27 ?v_65) ?v_67)) (or (or ?v_102 ?v_37) ?v_45)) (or (or P29 P19) ?v_142)) (or (or P0 ?v_104) ?v_84)) (or (or ?v_111 ?v_117) ?v_38)) (or (or ?v_62 P3) ?v_52)) (or (or P8 ?v_6) P18)) (or (or ?v_101 ?v_100) P15)) (or (or P2 ?v_112) P3)) (or (or ?v_135 ?v_68) ?v_148)) (or (or ?v_67 ?v_153) ?v_21)) (or (or ?v_157 P25) ?v_143)) (or (or P5 ?v_92) ?v_126)) (or (or ?v_143 ?v_88) ?v_59)) (or (or ?v_80 ?v_10) P21)) (or (or ?v_53 ?v_24) ?v_57)) (or (or ?v_68 P7) ?v_139)) (or (or ?v_153 ?v_31) ?v_67)) (or (or ?v_91 ?v_133) ?v_106)) (or (or P6 ?v_104) ?v_25)) (or (or ?v_24 ?v_71) ?v_134)) (or (or ?v_113 ?v_138) ?v_141)) (or (or ?v_88 ?v_134) ?v_58)) (or (or ?v_43 ?v_17) ?v_134)) (or (or ?v_21 ?v_115) ?v_45)) (or (or ?v_144 ?v_75) ?v_35)) (or (or ?v_128 ?v_101) ?v_80)) (or (or P1 ?v_130) ?v_53)) (or (or ?v_140 P23) ?v_107)) (or (or ?v_47 P9) ?v_6)) (or (or ?v_41 ?v_141) ?v_16)) (or (or ?v_115 ?v_112) ?v_97)) (or (or ?v_115 ?v_8) ?v_40)) (or (or ?v_82 ?v_128) ?v_23)) (or (or ?v_34 ?v_11) ?v_123)) (or (or ?v_21 ?v_33) ?v_3)) (or (or ?v_87 P22) P29)) (or (or ?v_136 ?v_15) ?v_82)) (or (or ?v_81 ?v_99) ?v_152)) (or (or ?v_109 ?v_103) ?v_91)) (or (or ?v_77 ?v_71) P20)) (or (or P24 ?v_24) ?v_87)) (or (or ?v_112 ?v_101) ?v_6)) (or (or P10 ?v_74) ?v_62)) (or (or ?v_70 ?v_49) ?v_90)) (or (or P14 ?v_89) ?v_51)) (or (or ?v_34 ?v_25) ?v_10)) (or (or ?v_14 P1) ?v_132)) (or (or ?v_61 P28) ?v_139)) (or (or ?v_157 ?v_133) ?v_24)) (or (or ?v_108 ?v_100) ?v_82)) (or (or ?v_87 ?v_48) ?v_144)) (or (or P13 ?v_146) P8)) (or (or ?v_139 ?v_115) ?v_33)) (or (or ?v_44 ?v_122) ?v_34)) (or (or ?v_111 ?v_38) P7)) (or (or ?v_90 P27) ?v_89)) (or (or P19 ?v_151) ?v_25)) (or (or P5 ?v_150) ?v_83)) (or (or ?v_15 ?v_10) ?v_79)) (or (or ?v_118 ?v_41) P18))))))))))))))))))))))))))))
(check-sat)
(exit)
